c all_slices.cnf
p cnf 109 17
-8 107 0
8 -107 0
-11 109 0
11 -109 0
-12 108 0
12 -108 0
 -11  -12 0
 8  -1 0
 -8  1 0
 8  -11 0
 -8  11  12 0
 8  -12 0
107  -109 0
 107  -108 0
 -107  109  108 0
 107 0
 -109  -108
